
  20    0


   0  10 2 3 4 5 6 8 9 17 18 19 
   7   3 16 15 12 
   8   2 14 7 
   8   2 13 10 
   4   2 12 11 
  10   2 11 10 
   3   1 10 
  10   1 10 
   2   1 10 
   8   1 20
   7   1 20
  10   1 20
   4   1 20
  10   1 20
   2   1 20
   4   1 20
   9   1 20
   5   1 20
   4   1 20
   0   0 
